/*********************************************
 * OPL 12.6.0.0 Data
 * Author: Adrian Rodriguez Bazaga, Pau Rodriguez Esmerats
 * Creation Date: 21/11/2017 at 20:50:30
 *********************************************/

nNurses=184;
maxConsec=2;
maxPresence=7;
maxHours=5;
minHours=1;
demand= [42 45 57 62 45 57 62 45 41 22 3 7 4 10 4 10 3 8 1 3 34 64 30 51  ];
